c "648143.clq"
p edge 120 464
e 1 5
e 1 6
e 1 7
e 1 8
e 1 12
e 1 14
e 1 20
e 1 28
e 1 37
e 1 43
e 1 47
e 1 59
e 1 68
e 1 71
e 1 96
e 1 107
e 2 5
e 2 12
e 2 22
e 2 27
e 2 32
e 2 40
e 2 70
e 2 90
e 2 118
e 3 5
e 3 6
e 3 12
e 3 16
e 3 17
e 3 18
e 3 34
e 3 35
e 3 55
e 3 58
e 3 66
e 3 86
e 3 102
e 4 5
e 4 6
e 4 7
e 4 8
e 4 9
e 4 10
e 4 11
e 4 16
e 4 17
e 4 26
e 4 29
e 4 32
e 4 33
e 4 36
e 4 41
e 4 42
e 4 51
e 4 52
e 4 56
e 4 60
e 4 62
e 4 65
e 4 71
e 4 72
e 4 82
e 4 83
e 4 110
e 5 6
e 5 7
e 5 8
e 5 9
e 5 14
e 5 15
e 5 20
e 5 23
e 5 24
e 5 30
e 5 33
e 5 36
e 5 37
e 5 39
e 5 47
e 5 49
e 5 50
e 5 53
e 5 54
e 5 55
e 5 61
e 5 62
e 5 66
e 5 67
e 5 75
e 5 78
e 5 81
e 5 82
e 5 84
e 5 94
e 6 7
e 6 10
e 6 11
e 6 13
e 6 18
e 6 25
e 6 26
e 6 34
e 6 46
e 6 55
e 6 57
e 6 59
e 6 65
e 6 68
e 6 72
e 6 77
e 6 92
e 6 93
e 6 95
e 6 99
e 6 108
e 6 115
e 7 8
e 7 9
e 7 10
e 7 11
e 7 13
e 7 14
e 7 16
e 7 21
e 7 22
e 7 23
e 7 25
e 7 34
e 7 59
e 7 109
e 7 113
e 8 9
e 8 10
e 8 11
e 8 12
e 8 13
e 8 15
e 8 18
e 8 19
e 8 24
e 8 29
e 8 31
e 8 40
e 8 41
e 8 45
e 8 49
e 8 56
e 8 74
e 8 76
e 8 77
e 8 80
e 8 86
e 8 88
e 8 89
e 8 109
e 8 116
e 8 118
e 9 15
e 9 16
e 9 21
e 9 53
e 9 54
e 9 119
e 10 20
e 10 28
e 10 35
e 10 43
e 10 45
e 10 79
e 10 101
e 11 13
e 11 14
e 11 19
e 11 23
e 11 25
e 11 27
e 11 31
e 11 35
e 11 38
e 11 39
e 11 42
e 11 43
e 11 51
e 11 52
e 11 62
e 11 67
e 11 68
e 11 82
e 11 90
e 11 92
e 11 95
e 11 104
e 11 108
e 11 110
e 12 17
e 12 19
e 12 22
e 12 27
e 12 36
e 12 39
e 12 44
e 12 51
e 12 56
e 12 57
e 12 67
e 12 70
e 12 72
e 12 73
e 12 79
e 12 87
e 12 88
e 12 90
e 12 91
e 12 94
e 12 97
e 12 98
e 12 104
e 12 116
e 13 15
e 13 17
e 13 18
e 13 19
e 13 22
e 13 26
e 13 31
e 13 43
e 13 49
e 13 52
e 13 66
e 13 69
e 13 89
e 13 98
e 13 107
e 13 111
e 14 29
e 14 36
e 14 65
e 14 91
e 14 96
e 14 103
e 14 108
e 14 110
e 15 23
e 15 28
e 15 38
e 15 50
e 15 78
e 15 105
e 15 109
e 16 42
e 16 44
e 16 64
e 16 73
e 16 75
e 16 78
e 16 97
e 16 105
e 16 117
e 17 20
e 17 29
e 17 32
e 17 40
e 17 44
e 17 49
e 17 57
e 17 71
e 17 75
e 17 85
e 18 34
e 18 41
e 18 44
e 18 63
e 18 66
e 18 74
e 18 90
e 18 93
e 19 21
e 19 24
e 20 21
e 20 42
e 20 80
e 20 120
e 21 24
e 21 27
e 21 30
e 21 47
e 21 54
e 21 95
e 21 99
e 21 104
e 21 119
e 22 25
e 22 26
e 22 31
e 22 40
e 22 45
e 22 47
e 22 50
e 22 77
e 22 102
e 22 116
e 23 30
e 23 97
e 24 32
e 24 78
e 25 28
e 25 37
e 25 71
e 25 81
e 25 94
e 25 102
e 26 30
e 26 33
e 26 46
e 26 60
e 26 76
e 26 85
e 26 99
e 26 100
e 26 105
e 26 118
e 27 33
e 27 57
e 27 63
e 27 101
e 27 114
e 28 35
e 28 48
e 28 80
e 28 87
e 29 61
e 29 74
e 30 45
e 30 69
e 30 103
e 31 37
e 31 38
e 31 69
e 31 101
e 32 51
e 32 58
e 33 39
e 33 54
e 34 48
e 34 74
e 35 58
e 35 89
e 36 48
e 36 56
e 36 60
e 36 93
e 37 38
e 37 64
e 37 73
e 37 112
e 38 41
e 38 58
e 38 59
e 38 76
e 38 100
e 39 106
e 39 113
e 40 46
e 40 62
e 40 64
e 40 67
e 40 83
e 40 88
e 40 92
e 40 102
e 40 119
e 41 48
e 41 55
e 41 86
e 41 92
e 41 119
e 42 73
e 42 93
e 43 52
e 43 63
e 43 69
e 43 76
e 43 103
e 44 46
e 44 60
e 44 79
e 44 85
e 44 98
e 44 101
e 44 106
e 45 113
e 45 115
e 46 70
e 46 84
e 47 77
e 47 87
e 47 100
e 48 53
e 48 64
e 49 50
e 50 84
e 50 100
e 50 104
e 50 115
e 51 68
e 51 105
e 52 53
e 54 75
e 54 84
e 55 61
e 55 83
e 55 110
e 55 116
e 55 120
e 56 61
e 56 95
e 58 63
e 58 96
e 59 65
e 59 81
e 59 87
e 59 98
e 59 106
e 60 70
e 60 85
e 60 111
e 61 97
e 64 91
e 65 109
e 66 106
e 67 72
e 67 114
e 68 96
e 71 115
e 73 112
e 74 82
e 74 112
e 75 80
e 75 83
e 75 86
e 75 91
e 75 107
e 75 111
e 76 79
e 76 81
e 76 88
e 76 94
e 76 99
e 76 120
e 78 103
e 80 108
e 83 117
e 84 117
e 85 89
e 87 107
e 89 120
e 90 113
e 92 114
e 92 118
e 99 112
e 99 117
e 104 111
e 107 114
